row=9;
column=9;

Board=[|0,0,0,0,0,3,0,0,0|0,0,3,0,2,1,8,0,0|9,2,0,8,7,4,6,3,0|0,0,0,0,4,0,0,0,0|0,6,7,3,0,2,9,8,0|0,0,0,0,8,6,4,0,0|0,0,0,0,0,0,0,7,0|0,0,0,0,3,0,0,0,0|2,0,6,1,0,0,0,0,0|];
OE=[|0,0,1,1,1,1,1,0,0|1,0,1,0,0,1,0,1,1|1,0,1,0,1,0,0,1,1|0,1,0,1,0,1,1,0,1|0,0,1,1,1,0,1,0,1|1,1,1,1,0,0,0,1,0|1,1,0,0,0,0,1,1,1|1,1,0,0,1,1,0,1,0|0,1,0,1,1,1,1,0,0|];
